n = 50;
C = 6336;
w = [61,480,65,401,118,199,210,246,128,231,433,124,389,408,221,372,314,153,369,1,223,2,3,366,335,422,127,379,55,151,64,362,93,192,128,389,380,218,323,197,236,426,224,284,416,409,301,392,392,261];
p = [61,480,65,401,118,199,210,246,128,231,433,124,389,408,221,372,314,153,369,1,223,2,3,366,335,422,127,379,55,151,64,362,93,192,128,389,380,218,323,197,236,426,224,284,416,409,301,392,392,261];
